c --- [ banner ] -------------------------------------------------------------
c 
c CaDiCaL Radically Simplified CDCL SAT Solver
c Copyright (c) 2016-2021 A. Biere, M. Fleury, N. Froleyks
c 
c Version 1.5.2 9c38a080b32c28d805e8e6ca21849856b0cda605
c g++ (Ubuntu 7.5.0-3ubuntu1~18.04) 7.5.0 -Wall -Wextra -O3 -DNDEBUG
c Wed Feb 16 23:15:36 EST 2022 Linux fac-vanhoeve01 5.4.0-99-generic x86_64
c 
c --- [ limit ] --------------------------------------------------------------
c 
c setting time limit to 600 seconds real time (due to '-t 600')
c setting conflict limit to 1000000000 conflicts (due to '1000000000')
c 
c --- [ parsing input ] ------------------------------------------------------
c 
c reading DIMACS file from 'ddfwcnfs/DSJR500.5.col_122.cnf'
c opening file to read 'ddfwcnfs/DSJR500.5.col_122.cnf'
c found 'p cnf 61000 3886444' header
c parsed 3886444 clauses in 2.20 seconds process time
c closing file 'ddfwcnfs/DSJR500.5.col_122.cnf'
c after reading 60891054 bytes 58.1 MB
c 
c --- [ options ] ------------------------------------------------------------
c 
c all options are set to their default value
c 
c --- [ solving ] ------------------------------------------------------------
c 
c time measured in process time since initialization
c 
c  seconds   reductions  redundant   irredundant
c          MB    restarts       trail        variables
c           level   conflicts       glue          remaining
c 
c *  2.20 324  0 0   0    0    0  0% 0 3849352 45915 75%
c {  2.20 325  0 0   0    0    0  0% 0 3849352 45915 75%
c -  3.00 325 54 1  44  301  214 42% 31 3848260 45915 75%
c }  3.54 325 84 1 179 1000  754 49% 46 3848260 45915 75%
c [  3.54 325  0 1 179 1000  754  0% 0 3848260 45915 75%
c O  3.54 325 170 1 179 1002  756 54% 19 3848260 45915 75%
c -  5.54 414 36 2 179 1852 1191 34% 26 3848260 45915 75%
c ]  5.66 414 43 2 180 3001 2093 34% 32 3848260 45915 75%
c {  5.66 414 84 2 180 3001 2093 49% 46 3848260 45915 75%
c F  7.57 407 84 2 180 3003 2095  6% 46 3848260 45915 75%
c -  9.34 436 82 3 199 4179 2333 29% 42 3848260 45915 75%
c p 12.02 436 74 3 200 5002 2882 28% 42 3848260 45915 75%
c # 12.86 436 71 3 250 6005 3504 28% 42 3848260 45915 75%
c } 13.04 436 73 3 250 7001 4312 27% 40 3848260 45915 75%
c [ 13.04 436 43 3 250 7001 4312 46% 32 3848260 45915 75%
c - 14.53 436 43 4 251 7282 2765 41% 31 3848260 45915 75%
c I 14.82 436 45 4 252 10008 4767 25% 31 3848260 45915 75%
c - 16.61 436 1161 5 253 11159 3877 33% 35 3848260 45915 75%
c s 18.10 436 1009 5 254 12783 5148 34% 40 3848260 45915 75%
c e 23.76 480 1009 5 254 12783 1364 34% 40 1587248 25788 42%
c 
c  seconds     reductions   redundant    irredundant
c          MB      restarts        trail         variables
c            level     conflicts       glue           remaining
c 
c s 24.06 480 1009 5 254 12783 1353 34% 40 1587248 25788 42%
c ^ 24.43 480 1009 5 254 12783 1353 34% 40 1587248 25788 42%
c ] 25.86 400 814 5 255 15002 2920 44% 49 1587248 25788 42%
c { 25.86 400 73 5 255 15002 2920 48% 40 1587248 25788 42%
c p 26.88 400 73 5 255 15002 2989 48% 40 1587248 25788 42%
c B 27.15 400 78 5 255 15010 2997 48% 40 1587248 25788 42%
c - 28.01 401 82 6 456 15812 2786 45% 42 1587248 25788 42%
c - 29.54 401 88 7 949 20434 4552 40% 44 1587248 25788 42%
c W 30.25 401 89 7 980 21013 5048 39% 44 1587248 25788 42%
c - 31.64 401 202 8 1486 25716 5413 36% 44 1587248 25788 42%
c F 32.03 401 183 8 2014 28017 7114 34% 46 1587248 25788 42%
c p 33.23 401 166 8 2016 30002 9251 32% 43 1587248 25788 42%
c } 33.59 401 159 8 2016 31006 10034 31% 42 1587248 25788 42%
c [ 33.59 401 814 8 2016 31006 10034 44% 49 1587248 25788 42%
c - 34.25 401 764 9 2016 31657 6001 37% 48 1587248 25788 42%
c B 34.71 401 541 9 2019 36018 9392 25% 42 1587248 25788 42%
c s 34.91 401 547 9 2019 36559 9502 25% 43 1587248 25788 42%
c s 36.74 401 547 9 2019 36559 9364 25% 43 1587248 25788 42%
c ^ 37.00 401 547 9 2019 36559 9364 25% 43 1587248 25788 42%
c - 37.91 402 507 10 2020 38259 7795 26% 46 1587248 25788 42%
c 
c  seconds    reductions      redundant    irredundant
c          MB      restarts          trail         variables
c            level      conflicts        glue           remaining
c 
c W 39.63 402 394 10 2023 45020 12857 25% 55 1587248 25788 42%
c - 40.31 402 387 11 2023 45523 7825 25% 55 1587248 25788 42%
c 2 41.84 402 336 11 2024 50003 10789 25% 57 1587248 25788 42%
c p 42.09 402 336 11 2024 50003 12896 25% 57 1587248 25788 42%
c - 43.55 402 324 12 2024 53450 8123 25% 59 1587248 25788 42%
c O 43.80 402 314 12 2025 55021 9302 26% 59 1587248 25788 42%
c - 45.30 401 263 13 2030 62032 7154 27% 58 1587248 25788 42%
c ] 45.42 401 258 13 2031 63006 7902 27% 57 1587248 25788 42%
c { 45.42 401 159 13 2031 63006 7902 31% 42 1587248 25788 42%
c B 45.98 401 148 13 2413 66024 10190 31% 43 1587248 25788 42%
c - 47.38 401 129 14 3002 71274 8479 31% 43 1587248 25788 42%
c s 47.61 401 127 14 3229 72227 9177 31% 44 1587248 25788 42%
c e 49.33 401 127 14 3229 72227 9177 31% 44 1587250 25787 42%
c s 49.37 401 127 14 3229 72227 9175 31% 44 1587250 25787 42%
c p 51.44 401 120 14 3918 75003 14737 31% 45 1587250 25787 42%
c W 52.89 401 114 14 4649 78025 15790 30% 46 1587250 25787 42%
c - 54.01 402 152 15 4652 81176 8137 30% 45 1587250 25787 42%
c # 55.58 402 149 15 5152 91027 14003 31% 45 1587250 25787 42%
c - 56.26 402 148 16 5152 91739 9070 31% 45 1587250 25787 42%
c - 58.28 402 130 17 5299 102962 11372 30% 44 1587250 25787 42%
c 
c  seconds    reductions       redundant    irredundant
c          MB      restarts           trail         variables
c            level      conflicts         glue           remaining
c 
c p 59.58 402 126 17 5368 105003 14055 30% 44 1587250 25787 42%
c B 59.85 402 126 17 5374 105028 14074 30% 44 1587250 25787 42%
c - 62.13 402 117 18 6389 114845 11995 31% 46 1587250 25787 42%
c W 64.32 402 113 18 6901 120030 15923 31% 46 1587250 25787 42%
c } 65.40 402 110 18 6964 127007 21038 32% 46 1587250 25787 42%
c [ 65.40 402 258 18 6964 127007 21038 27% 57 1587250 25787 42%
c - 66.11 403 257 19 6964 127388 12756 27% 58 1587250 25787 42%
c B 67.62 403 232 19 6969 136034 19457 28% 62 1587250 25787 42%
c p 69.84 403 234 19 6971 140005 28015 28% 61 1587250 25787 42%
c - 71.00 404 233 20 6971 140591 14254 28% 61 1587250 25787 42%
c W 75.11 404 199 20 6973 153041 23951 30% 65 1587250 25787 42%
c - 76.15 404 196 21 6973 154455 15152 30% 65 1587250 25787 42%
c - 79.40 404 187 22 6975 168983 14468 32% 70 1587250 25787 42%
c I 79.81 404 185 22 6976 171044 15795 32% 71 1587250 25787 42%
c p 83.32 404 310 22 6980 180006 24738 32% 73 1587250 25787 42%
c - 85.34 406 296 23 6983 184167 16089 33% 71 1587250 25787 42%
c B 86.66 406 286 23 6987 190047 20575 34% 71 1587250 25787 42%
c - 89.97 407 269 24 6988 200012 16341 35% 73 1587250 25787 42%
c W 94.95 407 250 24 6995 210048 23990 36% 74 1587250 25787 42%
c - 97.02 408 249 25 6998 216516 18250 36% 73 1587250 25787 42%
c 
c  seconds    reductions       redundant    irredundant
c          MB      restarts           trail         variables
c            level      conflicts         glue           remaining
c 
c p 99.86 408 236 25 7002 225006 25967 35% 73 1587250 25787 42%
c O 101.29 408 228 25 7003 231049 30899 34% 74 1587250 25787 42%
c - 102.36 407 222 26 7003 233681 19525 34% 72 1587250 25787 42%
c - 105.36 402 186 27 7005 251507 18613 30% 64 1587250 25787 42%
c B 105.62 402 183 27 7005 253051 19778 29% 63 1587250 25787 42%
c ] 106.16 402 421 27 7005 255009 21425 31% 66 1587250 25787 42%
c { 106.16 402 110 27 7005 255009 21425 32% 46 1587250 25787 42%
c - 109.60 404 103 28 8202 269992 19010 33% 46 1587250 25787 42%
c p 111.67 404 99 28 8212 275006 30037 32% 46 1587250 25787 42%
c F 112.12 404 98 28 8212 276052 30738 32% 45 1587250 25787 42%
c - 114.20 402 92 29 8212 289138 20537 29% 42 1587250 25787 42%
c B 115.37 402 89 29 8212 300054 28919 27% 41 1587250 25787 42%
c - 117.79 403 88 30 9300 308944 20903 27% 42 1587250 25787 42%
c W 123.14 403 85 30 10265 325055 32282 27% 40 1587250 25787 42%
c - 124.53 403 89 31 10598 329412 20118 28% 40 1587250 25787 42%
c s 124.67 403 89 31 10598 329412 19902 28% 40 1587250 25787 42%
c w 125.98 403 89 31 10598 329412 19853 28% 40 1587250 25787 42%
c 2 127.56 403 89 31 10648 330008 20320 28% 40 1587250 25787 42%
c p 127.81 403 89 31 10648 330008 23995 28% 40 1587250 25787 42%
c - 133.32 405 84 32 12539 350540 22472 29% 42 1587250 25787 42%
c 
c  seconds    reductions        redundant    irredundant
c           MB      restarts           trail         variables
c            level       conflicts         glue           remaining
c 
c # 133.42 405 83 32 12539 351056 22900 29% 42 1587250 25787 42%
c - 136.69 404 79 33 12543 372326 23700 27% 40 1587250 25787 42%
c B 137.42 404 77 33 12547 378057 28198 27% 40 1587250 25787 42%
c p 141.44 404 77 33 14119 390017 37539 28% 40 1587250 25787 42%
c - 143.41 404 77 34 14243 394773 23752 28% 40 1587250 25787 42%
c W 148.90 404 79 34 14545 406059 31438 28% 40 1587250 25787 42%
c - 151.31 403 75 35 14772 417880 20727 29% 40 1587250 25787 42%
c F 153.63 403 70 35 15055 435060 29937 30% 40 1587250 25787 42%
c - 155.25 403 72 36 15055 441650 21184 29% 39 1587250 25787 42%
c p 159.00 403 70 36 16559 455020 38107 29% 39 1587250 25787 42%
c B 160.80 403 70 36 16829 465062 45095 30% 39 1587250 25787 42%
c - 161.87 403 70 37 17035 466078 22467 30% 39 1587250 25787 42%
c - 166.13 403 76 38 17389 491166 23503 28% 36 1587250 25787 42%
c W 171.01 403 79 38 17400 496063 27239 28% 36 1587250 25787 42%
c } 174.37 403 78 38 20697 511013 35562 29% 38 1587250 25787 42%
c [ 174.37 403 421 38 20697 511013 35562 31% 66 1587250 25787 42%
c - 176.12 405 396 39 20697 516914 23541 30% 65 1587250 25787 42%
c p 179.08 405 366 39 20697 525025 33948 29% 63 1587250 25787 42%
c W 184.69 405 397 39 20697 528064 36398 29% 63 1587250 25787 42%
c - 188.23 408 357 40 20700 543324 27921 28% 67 1587250 25787 42%
c 
c  seconds     reductions        redundant    irredundant
c           MB       restarts           trail         variables
c             level       conflicts         glue           remaining
c 
c I 191.72 408 307 40 20710 561066 40407 30% 67 1587250 25787 42%
c - 194.53 409 302 41 20712 570393 27632 30% 65 1587250 25787 42%
c B 199.53 409 268 41 20726 595072 46347 31% 64 1587250 25787 42%
c - 200.76 410 305 42 20726 598122 28967 31% 65 1587250 25787 42%
c p 202.65 410 305 42 20727 600027 31886 31% 65 1587250 25787 42%
c - 210.13 415 254 43 20731 626511 30254 30% 66 1587250 25787 42%
c W 216.01 415 249 43 20734 630073 32908 30% 67 1587250 25787 42%
c - 222.84 415 215 44 20743 655561 31869 29% 69 1587250 25787 42%
c s 222.97 415 215 44 20743 655561 31644 29% 69 1587250 25787 42%
c w 224.30 415 215 44 20743 655561 31621 29% 69 1587250 25787 42%
c O 226.79 415 202 44 20750 666076 38736 29% 69 1587250 25787 42%
c 2 231.18 415 183 44 20757 680027 49368 30% 67 1587250 25787 42%
c p 231.56 415 183 44 20757 680027 57806 30% 67 1587250 25787 42%
c - 233.86 408 177 45 20758 685269 31716 30% 66 1587250 25787 42%
c B 237.77 408 160 45 20759 703082 45594 32% 65 1587250 25787 42%
c - 240.86 410 158 46 20760 715639 31760 32% 69 1587250 25787 42%
c W 252.34 410 149 46 20761 741084 50097 33% 74 1587250 25787 42%
c - 254.61 411 146 47 20761 746668 31398 34% 75 1587250 25787 42%
c p 260.58 411 140 47 20761 765028 48102 34% 78 1587250 25787 42%
c - 265.82 361 134 48 20761 778358 32227 35% 77 1587250 25787 42%
c 
c  seconds     reductions        redundant    irredundant
c           MB       restarts           trail         variables
c             level       conflicts         glue           remaining
c 
c I 266.21 361 133 48 20761 780088 33599 35% 77 1587250 25787 42%
c - 274.02 415 605 49 20766 810709 35895 35% 82 1587250 25787 42%
c B 276.27 415 570 49 20771 820090 42968 35% 82 1587250 25787 42%
c - 280.90 361 497 50 20780 843718 35816 34% 79 1587250 25787 42%
c p 284.46 361 457 50 20786 855029 46022 33% 77 1587250 25787 42%
c W 292.22 361 438 50 20790 861093 50720 33% 76 1587250 25787 42%
c - 294.99 412 404 51 20792 877389 37209 31% 72 1587250 25787 42%
c O 299.10 412 375 51 20802 903095 56113 31% 68 1587250 25787 42%
c - 301.10 361 349 52 20806 911720 36142 30% 65 1587250 25787 42%
c B 306.95 361 271 52 20821 946097 61589 29% 63 1587250 25787 42%
c - 307.83 411 274 53 20822 946712 36038 29% 63 1587250 25787 42%
c p 309.76 411 274 53 20822 950031 47153 29% 62 1587250 25787 42%
c - 317.04 361 219 54 20824 982363 37317 28% 61 1587250 25787 42%
c W 326.09 361 208 54 20824 990100 43115 28% 61 1587250 25787 42%
c - 333.78 410 178 55 20833 1018673 40510 29% 62 1587250 25787 42%
c s 333.94 410 178 55 20833 1018673 40402 29% 62 1587250 25787 42%
c ] 336.69 410 211 55 20836 1023020 43749 30% 62 1587250 25787 42%
c { 336.69 410 78 55 20836 1023020 43749 29% 38 1587250 25787 42%
c # 339.37 410 78 55 23444 1035101 51463 29% 40 1587250 25787 42%
c p 342.39 410 78 55 23496 1050031 64902 27% 38 1587250 25787 42%
c 
c  seconds    reductions         redundant    irredundant
c           MB      restarts            trail         variables
c            level        conflicts         glue           remaining
c 
c - 344.04 361 78 56 23496 1055644 36199 27% 38 1587250 25787 42%
c B 348.81 361 77 56 25539 1081104 53663 27% 37 1587250 25787 42%
c - 351.63 407 75 57 28466 1093275 36844 28% 39 1587250 25787 42%
c W 362.49 407 69 57 36944 1128108 49679 31% 42 1587250 25787 42%
c - 363.45 361 68 58 37663 1131567 24516 31% 43 1587250 25787 42%
c p 367.30 361 64 58 41372 1155034 34553 32% 44 1587250 25787 42%
c - 369.98 403 62 59 43105 1170520 21837 33% 44 1587250 25787 42%
c F 370.60 403 62 59 43793 1176110 23950 33% 45 1587250 25787 42%
c - 374.17 361 70 60 43793 1210131 36366 30% 38 1587250 25787 42%
c B 375.67 361 73 60 43793 1225113 48171 28% 37 1587250 25787 42%
c - 380.35 406 72 61 46758 1250403 38203 29% 37 1587250 25787 42%
c p 383.28 406 68 61 46792 1265034 56551 29% 37 1587250 25787 42%
c W 392.37 406 66 61 46804 1275115 63429 29% 37 1587250 25787 42%
c - 395.03 361 62 62 46837 1291336 38723 29% 36 1587250 25787 42%
c # 400.37 361 54 62 46845 1326117 59419 29% 35 1587250 25787 42%
c - 401.96 406 55 63 47212 1332931 38994 29% 34 1587250 25787 42%
c - 409.69 361 55 64 56379 1375184 31492 28% 39 1587250 25787 42%
c B 410.16 361 55 64 57050 1378118 32961 28% 40 1587250 25787 42%
c p 411.65 361 55 64 57487 1380034 38831 28% 40 1587250 25787 42%
c - 418.97 407 59 65 62130 1418097 36497 30% 41 1587250 25787 42%
c 
c  seconds    reductions         redundant    irredundant
c           MB      restarts            trail         variables
c            level        conflicts         glue           remaining
c 
c W 429.86 407 61 65 62176 1431119 46889 31% 41 1587250 25787 42%
c - 435.55 361 61 66 65627 1461670 42478 31% 41 1587250 25787 42%
c s 435.76 361 61 66 65627 1461670 42218 31% 41 1587250 25787 42%
c F 440.53 361 59 66 69224 1485121 54280 30% 42 1587250 25787 42%
c p 442.99 361 64 66 69225 1500035 66865 28% 39 1587250 25787 42%
c - 444.51 406 63 67 69225 1505902 41715 27% 39 1587250 25787 42%
c B 449.67 406 59 67 69225 1540125 68852 24% 35 1587250 25787 42%
c - 452.59 361 60 68 71301 1550797 46062 25% 36 1587250 25787 42%
c W 470.37 361 72 68 77249 1596129 77439 28% 38 1587250 25787 42%
c - 471.04 409 72 69 77297 1596350 44351 28% 38 1587250 25787 42%
c p 477.19 409 70 69 83187 1625039 73619 27% 41 1587250 25787 42%
c - 481.87 361 69 70 87080 1642566 46346 27% 43 1587250 25787 42%
c # 484.21 361 69 70 89499 1653130 54322 26% 44 1587250 25787 42%
c - 488.62 410 64 71 90562 1689439 41743 25% 45 1587250 25787 42%
c B 491.11 410 61 71 91165 1711131 55427 25% 45 1587250 25787 42%
c - 495.74 361 63 72 91539 1736973 45648 27% 44 1587250 25787 42%
c p 499.75 361 63 72 91648 1755041 62164 28% 44 1587250 25787 42%
c W 512.36 361 62 72 91758 1770133 71318 28% 44 1587250 25787 42%
c - 515.10 408 60 73 91855 1785169 42744 28% 44 1587250 25787 42%
c F 522.59 408 58 73 97855 1830136 74513 31% 45 1587250 25787 42%
c 
c  seconds    reductions         redundant    irredundant
c           MB      restarts            trail         variables
c            level        conflicts         glue           remaining
c 
c - 523.52 361 59 74 97855 1834025 47212 31% 45 1587250 25787 42%
c - 528.91 407 50 75 97861 1883541 50015 25% 38 1587250 25787 42%
c p 530.65 407 50 75 97923 1890045 55740 24% 38 1587250 25787 42%
c B 531.01 407 50 75 97923 1891138 56459 24% 38 1587250 25787 42%
c - 538.41 361 50 76 101713 1933715 45913 27% 40 1587250 25787 42%
c W 552.50 361 49 76 102120 1953139 55755 29% 40 1587250 25787 42%
c - 558.55 406 47 77 102261 1984549 40540 31% 40 1587250 25787 42%
c s 558.68 406 47 77 102261 1984549 40429 31% 40 1587250 25787 42%
c w 559.68 406 47 77 102261 1984549 40392 31% 40 1587250 25787 42%
c # 565.19 406 46 77 102415 2016140 57563 32% 40 1587250 25787 42%
c p 568.24 406 50 77 103927 2030046 75692 32% 40 1587250 25787 42%
c - 569.72 361 55 78 104137 2036045 43070 32% 39 1587250 25787 42%
c } 571.12 361 57 78 104431 2047020 50132 32% 39 1587250 25787 42%
c [ 571.12 361 211 78 104431 2047020 50132 30% 62 1587250 25787 42%
c I 575.91 361 206 78 104446 2080143 74431 33% 58 1587250 25787 42%
c - 578.02 414 212 79 104449 2088200 49408 34% 59 1587250 25787 42%
c - 590.56 429 209 80 104465 2141016 51801 35% 78 1587250 25787 42%
c B 591.77 429 208 80 104466 2145146 54814 35% 79 1587250 25787 42%
c p 597.42 429 194 80 104480 2175051 80643 33% 79 1587250 25787 42%
c ] 599.87 429 182 80 104481 2187847 90010 32% 79 1587250 25787 42%
c 
c  seconds     reductions          redundant    irredundant
c           MB       restarts             trail         variables
c             level         conflicts         glue           remaining
c 
c ? 599.87 429 182 80 104481 2187847 90010 32% 79 1587250 25787 42%
c 
c --- [ result ] -------------------------------------------------------------
c 
c UNKNOWN
c 
c --- [ run-time profiling ] -------------------------------------------------
c 
c process time taken by individual solving procedures
c (percentage relative to process time for solving)
c 
c       534.74   89.47% search
c       238.86   39.97% unstable
c       195.47   32.71% stable
c       100.40   16.80% walk
c        62.93   10.53% simplify
c        16.91    2.83% ternary
c         8.02    1.34% vivify
c         7.96    1.33% probe
c         4.44    0.74% elim
c         2.50    0.42% subsume
c         2.20    0.37% parse
c         0.01    0.00% lucky
c   =================================
c       597.67   99.63% solve
c 
c last line shows process time for solving
c (percentage relative to total process time)
c 
c --- [ statistics ] ---------------------------------------------------------
c 
c chronological:            485092        22.17 %  of conflicts
c conflicts:               2187847      3660.62    per second
c decisions:               3769299      6306.65    per second
c eliminated:                20128        33.00 %  of all variables
c fixed:                     15085        24.73 %  of all variables
c learned:                 2149135        98.23 %  per conflict
c learned_lits:          373346672       100.00 %  learned literals
c minimized:                     0         0.00 %  learned literals
c shrunken:              177200813        47.46 %  learned literals
c minishrunken:           16347061         4.38 %  learned literals
c propagations:          763861938         1.28 M  per second
c reduced:                 1412169        64.55 %  per conflict
c rephased:                     65     33659.18    interval
c restarts:                 104481        20.94    interval
c stabilizing:                   6        37.61 %  of conflicts
c subsumed:                 647486         5.29 %  of all clauses
c strengthened:              10399         0.08 %  of all clauses
c vivified:                    275         0.00 %  of all clauses
c walked:                       20    109392.35    interval
c weakened:                2269825         2.01    average size
c 
c seconds are measured in process time for solving
c 
c --- [ resources ] ----------------------------------------------------------
c 
c total process time since initialization:       599.87    seconds
c total real time since initialization:          600.00    seconds
c maximum resident set size of process:          553.67    MB
c 
c --- [ shutting down ] ------------------------------------------------------
c 
c exit 0
